w = 31;
n = 19;
measures = [|3, 3,
|3, 4,
|3, 5,
|3, 6,
|3, 7,
|3, 8,
|3, 9,
|3, 10,
|3, 11,
|3, 12,
|3, 13,
|3, 14,
|3, 22,
|3, 31,
|4, 3,
|4, 7,
|4, 8,
|4, 13,
|12, 31,
|];
initial_x = [0, 3, 6, 9, 12, 15, 18, 21, 24, 27, 0, 3, 6, 9, 12, 16, 20, 24, 0];
initial_y = [0, 0, 0, 0, 0, 0, 0, 0, 0, 0, 12, 12, 12, 12, 12, 12, 12, 12, 43];